
50
126943

7255 6821
923 917
5605 6179
8656 8420
7442 8346
5049 5151
6425 6311
2698 3693
5578 5281
255 1079
7130 6830
5689 6007
1878 2820
4785 3786
6490 7362
3751 4439
9609 9597
9203 9713
8445 8384
906 911
1011 752
2973 2886
3200 3612
6473 7050
8658 8269
5485 5627
6433 6392
6563 5731
12 341
4821 5267
2260 2133
3278 4170
821 88
6361 6558
8736 9103
329 687
6735 5801
58 235
4162 3519
2002 1593
9401 8606
7684 7281
8660 8966
2280 2180
8033 7189
6076 6995
5807 5107
9509 9162
5643 6250
3763 2829
